Route #1: 6 96 99 59 93 85 61 17 45 84 5 60 89
Route #2: 92 37 98 100 91 16 86 38 44 14 42 43 15 57 2 58
Route #3: 94 95 97 87 13
Route #4: 40 73 74 22 41 23 67 39 56 75 72 21
Route #5: 28 12 80 68 29 24 54 55 25 4 26 53
Route #6: 76 77 3 79 78 34 35 65 71 9 51 81 33 50
Route #7: 31 88 62 10 63 90 32 66 20 30 70 1 69 27
Route #8: 18 83 8 46 47 36 49 64 11 19 48 82 7 52
Cost 826.137
